webassembly/ejemplos_dzn/folder4_json_18.dzn
TERM = { '.', 's(2)', 's(4)', 'in_1', 'in_2', 'in_3', 's(1)', 's(0)', 's(3)', 'in_0'};
null = '.';
s = 4;
n = 9;
ndeps = 3;
max_registers_sz = 3;
NR = 0;
registers = [| |];
dependencies = [|'i32.store_0', 'i32.load16_u_1', |'i32.load16_u_1', 'call[function_index(0)]_2', |'call[function_index(0)]_2', 'i32.load16_u_3'|];
GET_ENUM = { GET1, GET2, GET3};
SET_ENUM = { SET1, SET2, SET3};
TEE_ENUM = { TEE1, TEE2, TEE3};
N = 4;
OP = { 'call[function_index(0)]_2', 'i32.store_0', 'i32.load16_u_1', 'i32.load16_u_3' };
in_ops = [2, 2, 1, 1 ];
out_ops = [3, 0, 1, 1 ];
in1 = ['s(0)', 'in_0', 'in_2', 's(3)' ];
in2 = ['in_3', 'in_1', '.', '.' ];
in3 = ['.', '.', '.', '.' ];
out1 = ['s(3)', '.', 's(0)', 's(4)' ];
out2 = ['s(2)', '.', '.', '.' ];
out3 = ['s(1)', '.', '.', '.' ];
comm = [false, false, false, false ];
gas = [1, 1, 1, 1 ];
sz = [1, 1, 1, 1 ];
stor = [true, true, false, false ];
lb = [ 1, 1, 1, 1 ];
ub = [ 4, 4, 4, 4 ];
startstack = [ 'in_0', 'in_1', 'in_2', 'in_3', null, null, null, null, null ];
endstack = [ 's(4)', 's(2)', 's(1)', null, null, null, null, null, null ];
